50
6581

374 267
716 492
461 366
294 994
32 719
318 729
835 359
254 628
784 440
431 222
180 288
357 399
883 633
105 544
799 244
78 472
946 180
410 503
333 463
797 788
536 394
110 407
668 692
483 636
570 664
860 555
156 288
336 778
941 395
770 242
961 604
352 455
491 595
205 523
902 78
110 98
712 984
165 633
985 660
246 692
267 995
218 338
681 677
914 482
486 884
126 940
39 974
452 956
398 324
606 59
